AME : levi30_13
COMMENT : 30: 36x20 -city problem (levikoppenhol)
TYPE : TSP
DIMENSION : 30
EDGE_WEIGHT_TYPE : EUC_2D
NODE_COORD_SECTION
1 16 32
2 18 34
3 12 35
4 5 0
5 17 28
6 12 24
7 7 13
8 4 13
9 18 23
10 18 24
11 0 34
12 19 31
13 3 13
14 0 23
15 18 19
16 15 32
17 1 5
18 1 5
19 4 10
20 3 18
21 17 1
22 5 17
23 5 34
24 5 24
25 6 0
26 10 27
27 9 15
28 6 31
29 8 3
30 9 33
EOF